#    GLPSOL model for polygon 1194299d-2dd7-45c3-818c-85698e284080

#Variables
var x_0 >= 0;
var x_1 >= 0;
var x_2 >= 0;
var x_3 >= 0;
var x_4 >= 0;
var x_5 >= 0;
var x_6 >= 0;
var x_7 >= 0;
var x_8 >= 0;
var x_9 >= 0;
var x_10 >= 0;
var x_11 >= 0;
var x_12 >= 0;
var x_13 >= 0;
var x_14 >= 0;
var x_15 >= 0;
var x_16 >= 0;
var x_17 >= 0;
var x_18 >= 0;
var x_19 >= 0;
var x_20 >= 0;
var x_21 >= 0;
var x_22 >= 0;
var x_23 >= 0;
var x_24 >= 0;
var x_25 >= 0;
var x_26 >= 0;
var x_27 >= 0;
var x_28 >= 0;
var x_29 >= 0;
var x_30 >= 0;
var x_31 >= 0;
var x_32 >= 0;
var x_33 >= 0;
var x_34 >= 0;
var x_35 >= 0;
var x_36 >= 0;
var x_37 >= 0;
var x_38 >= 0;
var x_39 >= 0;
var x_40 >= 0;
var x_41 >= 0;
var x_42 >= 0;
var x_43 >= 0;
var x_44 >= 0;
var x_45 >= 0;
var x_46 >= 0;
var x_47 >= 0;
var x_48 >= 0;
var x_49 >= 0;

#Objective
minimize vertex_guard: x_0 + x_1 + x_2 + x_3 + x_4 + x_5 + x_6 + x_7 + x_8 + x_9 + x_10 + x_11 + x_12 + x_13 + x_14 + x_15 + x_16 + x_17 + x_18 + x_19 + x_20 + x_21 + x_22 + x_23 + x_24 + x_25 + x_26 + x_27 + x_28 + x_29 + x_30 + x_31 + x_32 + x_33 + x_34 + x_35 + x_36 + x_37 + x_38 + x_39 + x_40 + x_41 + x_42 + x_43 + x_44 + x_45 + x_46 + x_47 + x_48 + x_49;
#Constraints:
s.t. guard_0: x_0 + x_1 + x_3 >= 1;
s.t. guard_1: x_1 + x_2 + x_0 >= 1;
s.t. guard_2: x_2 + x_4 + x_1 + x_3 >= 1;
s.t. guard_3: x_3 + x_5 + x_0 + x_2 + x_4 >= 1;
s.t. guard_4: x_4 + x_6 + x_2 + x_3 + x_5 >= 1;
s.t. guard_5: x_5 + x_9 + x_3 + x_4 + x_6 >= 1;
s.t. guard_6: x_6 + x_7 + x_4 + x_5 + x_8 >= 1;
s.t. guard_7: x_7 + x_8 + x_6 >= 1;
s.t. guard_8: x_8 + x_13 + x_7 + x_6 + x_9 >= 1;
s.t. guard_9: x_9 + x_10 + x_5 + x_8 >= 1;
s.t. guard_10: x_10 + x_11 + x_9 + x_12 + x_13 >= 1;
s.t. guard_11: x_11 + x_12 + x_10 >= 1;
s.t. guard_12: x_12 + x_15 + x_11 + x_10 + x_13 + x_14 >= 1;
s.t. guard_13: x_13 + x_14 + x_8 + x_10 + x_12 >= 1;
s.t. guard_14: x_14 + x_16 + x_13 + x_12 + x_15 >= 1;
s.t. guard_15: x_15 + x_19 + x_12 + x_14 + x_16 + x_17 >= 1;
s.t. guard_16: x_16 + x_17 + x_14 + x_15 >= 1;
s.t. guard_17: x_17 + x_18 + x_16 + x_15 >= 1;
s.t. guard_18: x_18 + x_21 + x_17 + x_19 + x_20 >= 1;
s.t. guard_19: x_19 + x_20 + x_15 + x_18 >= 1;
s.t. guard_20: x_20 + x_22 + x_19 + x_18 + x_21 >= 1;
s.t. guard_21: x_21 + x_25 + x_18 + x_20 + x_22 >= 1;
s.t. guard_22: x_22 + x_23 + x_20 + x_21 >= 1;
s.t. guard_23: x_23 + x_24 + x_22 + x_25 >= 1;
s.t. guard_24: x_24 + x_26 + x_23 + x_25 >= 1;
s.t. guard_25: x_25 + x_31 + x_21 + x_23 + x_24 + x_26 >= 1;
s.t. guard_26: x_26 + x_27 + x_24 + x_25 + x_28 + x_29 + x_31 >= 1;
s.t. guard_27: x_27 + x_28 + x_26 >= 1;
s.t. guard_28: x_28 + x_29 + x_27 + x_26 >= 1;
s.t. guard_29: x_29 + x_30 + x_28 + x_26 + x_31 >= 1;
s.t. guard_30: x_30 + x_32 + x_29 + x_31 >= 1;
s.t. guard_31: x_31 + x_34 + x_25 + x_26 + x_29 + x_30 + x_32 >= 1;
s.t. guard_32: x_32 + x_33 + x_30 + x_31 >= 1;
s.t. guard_33: x_33 + x_49 + x_32 + x_34 >= 1;
s.t. guard_34: x_34 + x_35 + x_31 + x_33 + x_36 >= 1;
s.t. guard_35: x_35 + x_36 + x_34 >= 1;
s.t. guard_36: x_36 + x_37 + x_35 + x_34 >= 1;
s.t. guard_37: x_37 + x_38 + x_36 >= 1;
s.t. guard_38: x_38 + x_39 + x_37 + x_40 + x_41 + x_45 + x_48 >= 1;
s.t. guard_39: x_39 + x_40 + x_38 >= 1;
s.t. guard_40: x_40 + x_41 + x_39 + x_38 >= 1;
s.t. guard_41: x_41 + x_42 + x_40 + x_38 + x_43 + x_44 + x_45 + x_48 >= 1;
s.t. guard_42: x_42 + x_43 + x_41 + x_44 + x_45 >= 1;
s.t. guard_43: x_43 + x_44 + x_42 + x_41 + x_45 >= 1;
s.t. guard_44: x_44 + x_45 + x_43 + x_41 + x_42 >= 1;
s.t. guard_45: x_45 + x_46 + x_44 + x_38 + x_41 + x_42 + x_43 + x_47 + x_48 >= 1;
s.t. guard_46: x_46 + x_47 + x_45 >= 1;
s.t. guard_47: x_47 + x_48 + x_46 + x_45 >= 1;
s.t. guard_48: x_48 + x_49 + x_47 + x_38 + x_41 + x_45 >= 1;
s.t. guard_49: x_49 + x_33 + x_48 >= 1;
end;